cpu-bind=MASK - cn-0136, task  0  0 [3855071]: mask |--------BBBBBBBB----||||--------------------|  set
Python 3.10.6
Gurobi Optimizer version 10.0.0 build v10.0.0rc2 (linux64)
Copyright (c) 2022, Gurobi Optimization, LLC
started at Thu Oct 19 14:12:05 CEST 2023
####################################################################################################
####################################################################################################
Start ROADEF
Set parameter TokenServer to value "license3.uni-paderborn.de"
####################################################################################################
####################################################################################################
Time for optimization 43200 (s)
####################################################################################################
Data read
Took 	00:00:00.069
####################################################################################################
Presolve
Anzahl Trucks in OPtimierungsproblem:  19
Itemgruppen in AP werden eher enger gemacht:  True
Start Reduction
Orinigial Anzahl:  123 634
Reduzierte Anzahl:  38 634
####################################################################################################
Load Assignment 1 solution
/scratch/hpc-prf-winf4/dwetzel/ROADEF/sol/AllPackingTight/X/PA2/output_items.csv
Took 	00:00:00.097
####################################################################################################
####################################################################################################
Simple Packing:  2
dataP.t2DSP:  1
####################################################################################################
####################################################################################################
First packing

----------------------------------------------------------------------------------------------------
3D Packing Heuristic in Truck P243630901
Item 0091017200_08062023000014 with: 1
Item 0091017200_08062023000020 with: 1
Item 0091017200_08062023000079 with: 7
Item 0091017200_08062023000086 with: 3
Item 0091017200_08062023000100 with: 4
Item 0091017200_08062023000103 with: 4
Heuristic packed all items

----------------------------------------------------------------------------------------------------
3D Packing Heuristic in Truck P173630901
Item 0091017200_08062023000001 with: 3
Item 0091017200_08062023000035 with: 2
Item 0091017200_08062023000047 with: 2
Item 0091017200_08062023000049 with: 2
Item 0091017200_08062023000069 with: 3
Item 0091017200_08062023000075 with: 6
Item 0091017200_08062023000109 with: 4
Heuristic packed all items

----------------------------------------------------------------------------------------------------
3D Packing Heuristic in Truck P194630901
Item 0091017200_08062023000003 with: 1
Item 0091017200_08062023000011 with: 2
Item 0091017200_08062023000065 with: 1
Item 0091017200_08062023000077 with: 3
Item 0091017200_08062023000084 with: 7
Item 0091017200_08062023000092 with: 4
Item 0091017200_08062023000095 with: 3
Item 0091017200_08062023000107 with: 1
Heuristic packed all items

----------------------------------------------------------------------------------------------------
3D Packing Heuristic in Truck P208630901
Item 0091017200_08062023000021 with: 2
Item 0091017200_08062023000039 with: 3
Item 0091017200_08062023000041 with: 4
Item 0091017200_08062023000048 with: 4
Item 0091017200_08062023000087 with: 2
Item 0091017200_08062023000097 with: 7
Heuristic packed all items

----------------------------------------------------------------------------------------------------
3D Packing Heuristic in Truck P209630901
Item 0091017200_08062023000002 with: 5
Item 0091017200_08062023000050 with: 2
Item 0091017200_08062023000062 with: 5
Item 0091017200_08062023000080 with: 2
Item 0091017200_08062023000091 with: 7
Item 0091017200_08062023000093 with: 1
Heuristic packed all items

----------------------------------------------------------------------------------------------------
3D Packing Heuristic in Truck P236630901
Item 0091017200_08062023000024 with: 4
Item 0091017200_08062023000053 with: 1
Item 0091017200_08062023000064 with: 8
Item 0091017200_08062023000072 with: 3
Item 0091017200_08062023000085 with: 4
Item 0091017200_08062023000104 with: 2
Heuristic packed all items

----------------------------------------------------------------------------------------------------
3D Packing Heuristic in Truck P187630901
Item 0091017200_08062023000005 with: 4
Item 0091017200_08062023000012 with: 3
Item 0091017200_08062023000013 with: 6
Item 0091017200_08062023000019 with: 3
Item 0091017200_08062023000074 with: 3
Item 0091017200_08062023000082 with: 3
Item 0091017200_08062023000111 with: 2
Heuristic packed all items

----------------------------------------------------------------------------------------------------
2D Packing Heuristic in Truck P201630901
Min2DVol: 15.599999999999996 [m2]
Stack 0 with items: ['0091017200_08062023000098', '0091017200_08062023000088', '0091017200_08062023000098']
Stack 1 with items: ['0091017200_08062023000088', '0091017200_08062023000042', '0091017200_08062023000042']
Stack 2 with items: ['0091017200_08062023000042', '0091017200_08062023000042', '0091017200_08062023000042']
Stack 3 with items: ['0091017200_08062023000042', '0091017200_08062023000042', '0091017200_08062023000042']
Stack 4 with items: ['0091017200_08062023000015', '0091017200_08062023000015', '0091017200_08062023000015']
Stack 5 with items: ['0091017200_08062023000010', '0091017200_08062023000010', '0091017200_08062023000010']
Stack 6 with items: ['0091017200_08062023000010', '0091017200_08062023000006', '0091017200_08062023000010']
Stack 7 with items: ['0091017200_08062023000006', '0091017200_08062023000006', '0091017200_08062023000006']
Stack 8 with items: ['0091017200_08062023000006', '0091017200_08062023000006']
Stack 9 with items: ['0091017200_08062023000123', '0091017200_08062023000123']
Stack 10 with items: ['0091017200_08062023000116', '0091017200_08062023000116']
Stack 11 with items: ['0091017200_08062023000116', '0091017200_08062023000116']
Stack 12 with items: ['0091017200_08062023000123', '0091017200_08062023000123']
Heuristic packed all stacks

----------------------------------------------------------------------------------------------------
2D Packing Heuristic in Truck P174630901
Min2DVol: 17.999999999999996 [m2]
Stack 0 with items: ['0091017200_08062023000119', '0091017200_08062023000119', '0091017200_08062023000119']
Stack 1 with items: ['0091017200_08062023000119', '0091017200_08062023000118', '0091017200_08062023000118']
Stack 2 with items: ['0091017200_08062023000118', '0091017200_08062023000118']
Stack 3 with items: ['0091017200_08062023000066', '0091017200_08062023000066']
Stack 4 with items: ['0091017200_08062023000066', '0091017200_08062023000066']
Stack 5 with items: ['0091017200_08062023000066', '0091017200_08062023000004']
Stack 6 with items: ['0091017200_08062023000004', '0091017200_08062023000004']
Stack 7 with items: ['0091017200_08062023000004']
Stack 8 with items: ['0091017200_08062023000057', '0091017200_08062023000057', '0091017200_08062023000057']
Stack 9 with items: ['0091017200_08062023000057', '0091017200_08062023000052']
Stack 10 with items: ['0091017200_08062023000052', '0091017200_08062023000052', '0091017200_08062023000052']
Stack 11 with items: ['0091017200_08062023000057', '0091017200_08062023000057', '0091017200_08062023000057']
Stack 12 with items: ['0091017200_08062023000094', '0091017200_08062023000057', '0091017200_08062023000057']
Stack 13 with items: ['0091017200_08062023000094', '0091017200_08062023000052', '0091017200_08062023000052']
Stack 14 with items: ['0091017200_08062023000052', '0091017200_08062023000057', '0091017200_08062023000057']
Heuristic packed all stacks

----------------------------------------------------------------------------------------------------
2D Packing Heuristic in Truck P199630901
Min2DVol: 19.199999999999996 [m2]
Stack 0 with items: ['0091017200_08062023000114', '0091017200_08062023000105', '0091017200_08062023000114']
Stack 1 with items: ['0091017200_08062023000105', '0091017200_08062023000105', '0091017200_08062023000105']
Stack 2 with items: ['0091017200_08062023000105', '0091017200_08062023000046', '0091017200_08062023000105']
Stack 3 with items: ['0091017200_08062023000046', '0091017200_08062023000046', '0091017200_08062023000046']
Stack 4 with items: ['0091017200_08062023000023', '0091017200_08062023000023', '0091017200_08062023000023']
Stack 5 with items: ['0091017200_08062023000023', '0091017200_08062023000023', '0091017200_08062023000023']
Stack 6 with items: ['0091017200_08062023000023', '0091017200_08062023000023', '0091017200_08062023000023']
Stack 7 with items: ['0091017200_08062023000023', '0091017200_08062023000023', '0091017200_08062023000023']
Stack 8 with items: ['0091017200_08062023000023']
Stack 9 with items: ['0091017200_08062023000096', '0091017200_08062023000027']
Stack 10 with items: ['0091017200_08062023000027', '0091017200_08062023000027']
Stack 11 with items: ['0091017200_08062023000089', '0091017200_08062023000027']
Stack 12 with items: ['0091017200_08062023000027', '0091017200_08062023000027']
Stack 13 with items: ['0091017200_08062023000089']
Stack 14 with items: ['0091017200_08062023000089', '0091017200_08062023000089']
Stack 15 with items: ['0091017200_08062023000089', '0091017200_08062023000089']
Heuristic packed all stacks

----------------------------------------------------------------------------------------------------
2D Packing Heuristic in Truck P241630901
Min2DVol: 19.199999999999996 [m2]
Stack 0 with items: ['0091017200_08062023000007', '0091017200_08062023000007']
Stack 1 with items: ['0091017200_08062023000071', '0091017200_08062023000007']
Stack 2 with items: ['0091017200_08062023000007', '0091017200_08062023000071']
Stack 3 with items: ['0091017200_08062023000071', '0091017200_08062023000071']
Stack 4 with items: ['0091017200_08062023000007', '0091017200_08062023000071']
Stack 5 with items: ['0091017200_08062023000071', '0091017200_08062023000071']
Stack 6 with items: ['0091017200_08062023000071', '0091017200_08062023000007']
Stack 7 with items: ['0091017200_08062023000007', '0091017200_08062023000007']
Stack 8 with items: ['0091017200_08062023000117', '0091017200_08062023000117', '0091017200_08062023000117']
Stack 9 with items: ['0091017200_08062023000117', '0091017200_08062023000067', '0091017200_08062023000117']
Stack 10 with items: ['0091017200_08062023000067', '0091017200_08062023000067', '0091017200_08062023000067']
Stack 11 with items: ['0091017200_08062023000067', '0091017200_08062023000067', '0091017200_08062023000067']
Stack 12 with items: ['0091017200_08062023000067', '0091017200_08062023000067', '0091017200_08062023000067']
Stack 13 with items: ['0091017200_08062023000067', '0091017200_08062023000067', '0091017200_08062023000067']
Stack 14 with items: ['0091017200_08062023000067', '0091017200_08062023000055', '0091017200_08062023000055']
Stack 15 with items: ['0091017200_08062023000008', '0091017200_08062023000008']
Heuristic packed all stacks

----------------------------------------------------------------------------------------------------
2D Packing Heuristic in Truck P244630901
Min2DVol: 19.199999999999996 [m2]
Stack 0 with items: ['0091017200_08062023000099', '0091017200_08062023000099', '0091017200_08062023000099']
Stack 1 with items: ['0091017200_08062023000099', '0091017200_08062023000099', '0091017200_08062023000099']
Stack 2 with items: ['0091017200_08062023000099', '0091017200_08062023000099', '0091017200_08062023000099']
Stack 3 with items: ['0091017200_08062023000099', '0091017200_08062023000099', '0091017200_08062023000099']
Stack 4 with items: ['0091017200_08062023000099', '0091017200_08062023000076', '0091017200_08062023000076']
Stack 5 with items: ['0091017200_08062023000076', '0091017200_08062023000068', '0091017200_08062023000076']
Stack 6 with items: ['0091017200_08062023000068', '0091017200_08062023000068', '0091017200_08062023000068']
Stack 7 with items: ['0091017200_08062023000016', '0091017200_08062023000016', '0091017200_08062023000016']
Stack 8 with items: ['0091017200_08062023000016', '0091017200_08062023000016']
Stack 9 with items: ['0091017200_08062023000029', '0091017200_08062023000029']
Stack 10 with items: ['0091017200_08062023000032', '0091017200_08062023000029']
Stack 11 with items: ['0091017200_08062023000029', '0091017200_08062023000029']
Stack 12 with items: ['0091017200_08062023000032', '0091017200_08062023000032']
Stack 13 with items: ['0091017200_08062023000032', '0091017200_08062023000032']
Stack 14 with items: ['0091017200_08062023000029']
Stack 15 with items: ['0091017200_08062023000032', '0091017200_08062023000032']
Heuristic packed all stacks

----------------------------------------------------------------------------------------------------
2D Packing Heuristic in Truck P188630901
Min2DVol: 19.199999999999996 [m2]
Stack 0 with items: ['0091017200_08062023000102', '0091017200_08062023000102', '0091017200_08062023000102']
Stack 1 with items: ['0091017200_08062023000101', '0091017200_08062023000101', '0091017200_08062023000101']
Stack 2 with items: ['0091017200_08062023000081', '0091017200_08062023000081']
Stack 3 with items: ['0091017200_08062023000081', '0091017200_08062023000081']
Stack 4 with items: ['0091017200_08062023000081', '0091017200_08062023000081']
Stack 5 with items: ['0091017200_08062023000081', '0091017200_08062023000017']
Stack 6 with items: ['0091017200_08062023000017', '0091017200_08062023000017']
Stack 7 with items: ['0091017200_08062023000017', '0091017200_08062023000017']
Stack 8 with items: ['0091017200_08062023000017', '0091017200_08062023000017']
Stack 9 with items: ['0091017200_08062023000045', '0091017200_08062023000045', '0091017200_08062023000045']
Stack 10 with items: ['0091017200_08062023000045', '0091017200_08062023000045', '0091017200_08062023000045']
Stack 11 with items: ['0091017200_08062023000034', '0091017200_08062023000034', '0091017200_08062023000034']
Stack 12 with items: ['0091017200_08062023000045', '0091017200_08062023000045', '0091017200_08062023000045']
Stack 13 with items: ['0091017200_08062023000038', '0091017200_08062023000045', '0091017200_08062023000045']
Stack 14 with items: ['0091017200_08062023000108', '0091017200_08062023000108', '0091017200_08062023000108']
Stack 15 with items: ['0091017200_08062023000034', '0091017200_08062023000034']
Heuristic packed all stacks

----------------------------------------------------------------------------------------------------
2D Packing Heuristic in Truck P195630901
Min2DVol: 20.39999999999999 [m2]
Stack 0 with items: ['0091017200_08062023000028', '0091017200_08062023000028']
Stack 1 with items: ['0091017200_08062023000028', '0091017200_08062023000028']
Stack 2 with items: ['0091017200_08062023000063', '0091017200_08062023000063']
Stack 3 with items: ['0091017200_08062023000063', '0091017200_08062023000063']
Stack 4 with items: ['0091017200_08062023000031', '0091017200_08062023000063']
Stack 5 with items: ['0091017200_08062023000063', '0091017200_08062023000063']
Stack 6 with items: ['0091017200_08062023000028', '0091017200_08062023000028']
Stack 7 with items: ['0091017200_08062023000028', '0091017200_08062023000030']
Stack 8 with items: ['0091017200_08062023000110', '0091017200_08062023000110', '0091017200_08062023000110']
Stack 9 with items: ['0091017200_08062023000106', '0091017200_08062023000106', '0091017200_08062023000106']
Stack 10 with items: ['0091017200_08062023000106', '0091017200_08062023000106', '0091017200_08062023000106']
Stack 11 with items: ['0091017200_08062023000083', '0091017200_08062023000083', '0091017200_08062023000083']
Stack 12 with items: ['0091017200_08062023000083', '0091017200_08062023000083', '0091017200_08062023000083']
Stack 13 with items: ['0091017200_08062023000083', '0091017200_08062023000083', '0091017200_08062023000083']
Stack 14 with items: ['0091017200_08062023000083', '0091017200_08062023000083', '0091017200_08062023000083']
Stack 15 with items: ['0091017200_08062023000044', '0091017200_08062023000044', '0091017200_08062023000044']
Stack 16 with items: ['0091017200_08062023000044', '0091017200_08062023000044']
Heuristic packed all stacks

----------------------------------------------------------------------------------------------------
2D Packing Heuristic in Truck P185630901
Min2DVol: 22.799999999999994 [m2]
Stack 0 with items: ['0091017200_08062023000122', '0091017200_08062023000122', '0091017200_08062023000122']
Stack 1 with items: ['0091017200_08062023000009', '0091017200_08062023000058', '0091017200_08062023000058']
Stack 2 with items: ['0091017200_08062023000009', '0091017200_08062023000009', '0091017200_08062023000009']
Stack 3 with items: ['0091017200_08062023000009', '0091017200_08062023000009', '0091017200_08062023000122']
Stack 4 with items: ['0091017200_08062023000009', '0091017200_08062023000009', '0091017200_08062023000009']
Stack 5 with items: ['0091017200_08062023000009', '0091017200_08062023000058', '0091017200_08062023000058']
Stack 6 with items: ['0091017200_08062023000009', '0091017200_08062023000009', '0091017200_08062023000009']
Stack 7 with items: ['0091017200_08062023000058', '0091017200_08062023000058', '0091017200_08062023000058']
Stack 8 with items: ['0091017200_08062023000058', '0091017200_08062023000058', '0091017200_08062023000058']
Stack 9 with items: ['0091017200_08062023000113', '0091017200_08062023000113', '0091017200_08062023000113']
Stack 10 with items: ['0091017200_08062023000113', '0091017200_08062023000112', '0091017200_08062023000113']
Stack 11 with items: ['0091017200_08062023000112', '0091017200_08062023000112', '0091017200_08062023000112']
Stack 12 with items: ['0091017200_08062023000112', '0091017200_08062023000078']
Stack 13 with items: ['0091017200_08062023000078', '0091017200_08062023000078']
Stack 14 with items: ['0091017200_08062023000078', '0091017200_08062023000078']
Stack 15 with items: ['0091017200_08062023000078', '0091017200_08062023000018']
Stack 16 with items: ['0091017200_08062023000018', '0091017200_08062023000018']
Stack 17 with items: ['0091017200_08062023000018', '0091017200_08062023000018']
Stack 18 with items: ['0091017200_08062023000018']
Heuristic packed all stacks

----------------------------------------------------------------------------------------------------
2D Packing Heuristic in Truck P192630901
Min2DVol: 23.999999999999993 [m2]
Stack 0 with items: ['0091017200_08062023000073', '0091017200_08062023000073', '0091017200_08062023000073']
Stack 1 with items: ['0091017200_08062023000070', '0091017200_08062023000070', '0091017200_08062023000070']
Stack 2 with items: ['0091017200_08062023000025', '0091017200_08062023000025', '0091017200_08062023000070']
Stack 3 with items: ['0091017200_08062023000070', '0091017200_08062023000070', '0091017200_08062023000070']
Stack 4 with items: ['0091017200_08062023000070', '0091017200_08062023000070', '0091017200_08062023000070']
Stack 5 with items: ['0091017200_08062023000073', '0091017200_08062023000033', '0091017200_08062023000073']
Stack 6 with items: ['0091017200_08062023000033', '0091017200_08062023000033', '0091017200_08062023000033']
Stack 7 with items: ['0091017200_08062023000070', '0091017200_08062023000070', '0091017200_08062023000070']
Stack 8 with items: ['0091017200_08062023000073', '0091017200_08062023000073', '0091017200_08062023000073']
Stack 9 with items: ['0091017200_08062023000060', '0091017200_08062023000060']
Stack 10 with items: ['0091017200_08062023000060', '0091017200_08062023000060']
Stack 11 with items: ['0091017200_08062023000060', '0091017200_08062023000060']
Stack 12 with items: ['0091017200_08062023000060', '0091017200_08062023000059']
Stack 13 with items: ['0091017200_08062023000056', '0091017200_08062023000056']
Stack 14 with items: ['0091017200_08062023000056', '0091017200_08062023000056']
Stack 15 with items: ['0091017200_08062023000056', '0091017200_08062023000056']
Stack 16 with items: ['0091017200_08062023000054', '0091017200_08062023000054', '0091017200_08062023000054']
Stack 17 with items: ['0091017200_08062023000054', '0091017200_08062023000040', '0091017200_08062023000054']
Stack 18 with items: ['0091017200_08062023000040', '0091017200_08062023000040', '0091017200_08062023000040']
Stack 19 with items: ['0091017200_08062023000040']
Heuristic packed all stacks

----------------------------------------------------------------------------------------------------
2D Packing Heuristic in Truck P237630901
Min2DVol: 25.199999999999992 [m2]
Stack 0 with items: ['0091017200_08062023000090', '0091017200_08062023000090']
Stack 1 with items: ['0091017200_08062023000026', '0091017200_08062023000026']
Stack 2 with items: ['0091017200_08062023000026', '0091017200_08062023000090']
Stack 3 with items: ['0091017200_08062023000026', '0091017200_08062023000026']
Stack 4 with items: ['0091017200_08062023000026', '0091017200_08062023000026']
Stack 5 with items: ['0091017200_08062023000090', '0091017200_08062023000090']
Stack 6 with items: ['0091017200_08062023000090', '0091017200_08062023000090']
Stack 7 with items: ['0091017200_08062023000090', '0091017200_08062023000090']
Stack 8 with items: ['0091017200_08062023000026', '0091017200_08062023000026']
Stack 9 with items: ['0091017200_08062023000061', '0091017200_08062023000061', '0091017200_08062023000061']
Stack 10 with items: ['0091017200_08062023000051', '0091017200_08062023000051', '0091017200_08062023000051']
Stack 11 with items: ['0091017200_08062023000051', '0091017200_08062023000043', '0091017200_08062023000043']
Stack 12 with items: ['0091017200_08062023000043', '0091017200_08062023000043', '0091017200_08062023000043']
Stack 13 with items: ['0091017200_08062023000043', '0091017200_08062023000043', '0091017200_08062023000043']
Stack 14 with items: ['0091017200_08062023000036', '0091017200_08062023000036', '0091017200_08062023000036']
Stack 15 with items: ['0091017200_08062023000036', '0091017200_08062023000036', '0091017200_08062023000036']
Stack 16 with items: ['0091017200_08062023000036', '0091017200_08062023000036', '0091017200_08062023000036']
Stack 17 with items: ['0091017200_08062023000036', '0091017200_08062023000036', '0091017200_08062023000036']
Stack 18 with items: ['0091017200_08062023000036', '0091017200_08062023000036', '0091017200_08062023000036']
Stack 19 with items: ['0091017200_08062023000036', '0091017200_08062023000036', '0091017200_08062023000036']
Stack 20 with items: ['0091017200_08062023000036']
Heuristic packed all stacks

----------------------------------------------------------------------------------------------------
2D Packing Heuristic in Truck P202630901
Min2DVol: 29.99999999999999 [m2]
Stack 0 with items: ['0091017200_08062023000042', '0091017200_08062023000042', '0091017200_08062023000042']
Stack 1 with items: ['0091017200_08062023000037', '0091017200_08062023000037', '0091017200_08062023000037']
Stack 2 with items: ['0091017200_08062023000037', '0091017200_08062023000037', '0091017200_08062023000037']
Stack 3 with items: ['0091017200_08062023000037', '0091017200_08062023000037', '0091017200_08062023000037']
Stack 4 with items: ['0091017200_08062023000037', '0091017200_08062023000037', '0091017200_08062023000037']
Stack 5 with items: ['0091017200_08062023000037', '0091017200_08062023000037', '0091017200_08062023000037']
Stack 6 with items: ['0091017200_08062023000037', '0091017200_08062023000037', '0091017200_08062023000037']
Stack 7 with items: ['0091017200_08062023000037', '0091017200_08062023000037', '0091017200_08062023000037']
Stack 8 with items: ['0091017200_08062023000037', '0091017200_08062023000037', '0091017200_08062023000037']
Stack 9 with items: ['0091017200_08062023000037', '0091017200_08062023000022', '0091017200_08062023000022']
Stack 10 with items: ['0091017200_08062023000022', '0091017200_08062023000022']
Stack 11 with items: ['0091017200_08062023000121', '0091017200_08062023000121']
Stack 12 with items: ['0091017200_08062023000121', '0091017200_08062023000121']
Stack 13 with items: ['0091017200_08062023000121', '0091017200_08062023000121']
Stack 14 with items: ['0091017200_08062023000121', '0091017200_08062023000121']
Stack 15 with items: ['0091017200_08062023000115', '0091017200_08062023000115']
Stack 16 with items: ['0091017200_08062023000121', '0091017200_08062023000121']
Stack 17 with items: ['0091017200_08062023000115', '0091017200_08062023000115']
Stack 18 with items: ['0091017200_08062023000121', '0091017200_08062023000121']
Stack 19 with items: ['0091017200_08062023000115']
Stack 20 with items: ['0091017200_08062023000115', '0091017200_08062023000115']
Stack 21 with items: ['0091017200_08062023000115', '0091017200_08062023000115']
Stack 22 with items: ['0091017200_08062023000115', '0091017200_08062023000115']
Stack 23 with items: ['0091017200_08062023000115', '0091017200_08062023000120']
Stack 24 with items: ['0091017200_08062023000121', '0091017200_08062023000115']
Heuristic packed all stacks
****************************************************************************************************
****************************************************************************************************
****************************************************************************************************
Final Solution
Objective;27560.0
Transportation cost;27000.0
Inventory cost;560.0
Runtime;0.79
****************************************************************************************************
****************************************************************************************************
****************************************************************************************************
####################################################################################################
Export solution
End ROADEF
####################################################################################################
####################################################################################################
####################################################################################################
####################################################################################################
####################################################################################################
####################################################################################################
####################################################################################################

real	0m1.695s
user	0m1.722s
sys	0m0.787s
finished at Thu Oct 19 14:12:06 CEST 2023
